benchmark_str_length/p2_10_6-0.txt
{
	"num_strings": 10,
	"alphabet": "ACGT",
	"strings": [
		"TGTTC",
		"TTCGCC",
		"ATACC",
		"TTT",
		"C",
		"ACACCT",
		"G",
		"TC",
		"GGA",
		"AT"
	],
	"str_length":[5,6,5,3,1,6,1,2,3,2]
}